&INPUTPP
	prefix='Au'
	outdir='./tmp'
	plot_num=0
/
&PLOT
	iflag = 3
	output_format = 5
	fileout='RHO_XCRYSDEN.xsf'
/
