&control
    calculation='scf'
    prefix='Au',
    pseudo_dir = '/home/oropebuen/Documents/Job/Absortion/SSSP_efficiency_pseudos',
    outdir='./tmp'
/

&system
    ibrav=4, celldm(1)=5.449, celldm(3)=7.427, nat=4, ntyp=1,
    ecutwfc = 40
    ecutrho = 320
    occupations='smearing' 
    smearing='gauss'
    degauss=0.01
/

&electrons
/

&ions
/

&cell
/

ATOMIC_SPECIES
 Au  196.966  Au_ONCV_PBE-1.0.upf
ATOMIC_POSITIONS (alat)
Au       0.000000000  -0.000000000  -0.071640824
Au       0.500000000   0.288675000   0.797508797
Au       0.000000000   0.577350000   1.652174586
Au       0.000000000  -0.000000000   2.520937441
K_POINTS (automatic)
 8 8 1 1 1 1

