&control
    calculation='relax'
    prefix='CO_Au_hollow',
    pseudo_dir = '/home/oropebuen/Documents/Job/Absortion/SSSP_efficiency_pseudos',
    outdir='./tmp/'
/

&system
    ibrav=4,
    celldm(1)=5.449,
    celldm(3)=8.442,
    nat=8,
    ntyp=3,
    ecutwfc = 40
    ecutrho = 320
    occupations='smearing', 
    smearing='gauss', 
    degauss=0.01
/

&electrons
/

&ions
/

&cell
/

ATOMIC_SPECIES
Au  196.966  Au_ONCV_PBE-1.0.upf
C   12.0107  C.pbe-n-kjpaw_psl.1.0.0.UPF
O   15.9994  O.pbe-n-kjpaw_psl.0.1.U
 
ATOMIC_POSITIONS alat
O	0.500001	0.288675       -1.015353
C	0.500000	0.289675       -0.624244	

Au      0.000000        0.000000        0.000000
Au      0.500000        0.288675        0.816497
Au      0.000000        0.577350        1.632993 
Au      0.000000        0.000000        2.449490
 
C       0.500000        0.288675        3.073734
O       0.500001        0.289675        3.464843
K_POINTS automatic
8 8 1 1 1 1

