&INPUTPP
prefix= 'Au'
outdir='./tmp/'
plot_num=11
/
&PLOT
iflag = 3
output_format = 5
fileout = 'V_Au.xsf'
/

